30
2	3	5	10	11	14	15	17	19	20	25	0
1	4	10	12	13	14	15	18	19	21	22	24	25	27	30	0
1	6	7	8	11	13	14	15	18	21	24	26	27	28	29	30	0
2	10	13	15	18	20	22	25	26	27	28	29	0
1	7	8	9	12	16	17	18	19	20	21	23	24	25	0
3	7	10	13	14	16	19	20	24	25	26	28	29	30	0
3	5	6	10	11	14	15	16	21	23	24	26	27	30	0
3	5	14	18	19	21	22	24	26	29	0
5	10	11	12	13	21	24	30	0
1	2	4	6	7	9	14	17	18	20	21	23	29	0
1	3	7	9	12	19	0
2	5	9	11	14	17	18	20	22	23	26	0
2	3	4	6	9	16	22	23	24	25	26	29	0
1	2	3	6	7	8	10	12	16	20	21	22	26	28	30	0
1	2	3	4	7	19	21	23	25	26	28	30	0
5	6	7	13	14	19	22	24	26	28	0
1	5	10	12	18	19	22	23	24	27	29	0
2	3	4	5	8	10	12	17	19	25	26	0
1	2	5	6	8	11	15	16	17	18	23	0
1	4	5	6	10	12	14	22	23	24	0
2	3	5	7	8	9	10	14	15	22	23	24	0
2	4	8	12	13	14	16	17	20	21	28	0
5	7	10	12	13	15	17	19	20	21	24	25	26	29	0
2	3	5	6	7	8	9	13	16	17	20	21	23	26	27	29	0
1	2	4	5	6	13	15	18	23	30	0
3	4	6	7	8	12	13	14	15	16	18	23	24	0
2	3	4	7	17	24	0
3	4	6	14	15	16	22	29	0
3	4	6	8	10	13	17	23	24	28	0
2	3	6	7	9	14	15	25	0


comments:
random graph
nodes 30
edges 172
rng seed 124 
